#************************************************************************
# 
#    These are published data of the HERMES Collaboration.
#    You are free to use these data in any publication. 
#    However, you must make a reference to the following publication:
# 
#    A. Airapetian et al, Phys. Rev. D 87 (2013) 074029 
# 
#************************************************************************
# 
# Covariance matrices for the hadron charge asymmetries from HERMES
# Configuration: zx-3D (x: 9, z: 6, Php: 4)
# Projected to: 1D (x: 9)
# Target: H
# Optional settings: VM subtracted
#
#  i    j            pi             k
   0    0  1.167093e-05  7.448609e-05
   0    1 -1.612559e-06 -1.005291e-05
   0    2  1.038222e-07  6.147830e-07
   0    3 -5.978663e-08 -3.268392e-07
   0    4 -1.597001e-08 -1.033353e-07
   0    5 -1.751100e-08 -6.984613e-08
   0    6 -7.503440e-09 -2.066675e-08
   0    7 -2.354337e-10  3.132576e-10
   0    8  1.037846e-09  3.329131e-09
   1    0 -1.612559e-06 -1.005291e-05
   1    1  8.049385e-06  4.867065e-05
   1    2 -1.625858e-06 -9.612155e-06
   1    3  1.605489e-07  8.772139e-07
   1    4 -6.442824e-08 -3.406723e-07
   1    5 -1.271464e-08 -7.885932e-08
   1    6 -8.518546e-09 -2.333429e-08
   1    7 -3.942557e-09  7.060811e-10
   1    8  4.909358e-10  1.353364e-09
   2    0  1.038222e-07  6.147830e-07
   2    1 -1.625858e-06 -9.612155e-06
   2    2  6.978145e-06  4.382236e-05
   2    3 -1.835464e-06 -1.061136e-05
   2    4  1.657498e-07  9.146752e-07
   2    5 -6.079350e-08 -3.165187e-07
   2    6 -7.341838e-09 -2.957478e-08
   2    7 -8.473828e-09 -4.113276e-08
   2    8 -1.477975e-09  6.984854e-09
   3    0 -5.978663e-08 -3.268392e-07
   3    1  1.605489e-07  8.772139e-07
   3    2 -1.835464e-06 -1.061136e-05
   3    3  7.877946e-06  4.828601e-05
   3    4 -1.919242e-06 -1.096990e-05
   3    5  2.284311e-07  1.178480e-06
   3    6 -6.534083e-08 -3.375189e-07
   3    7 -8.809646e-10 -3.006592e-10
   3    8 -9.958291e-09 -3.556745e-08
   4    0 -1.597001e-08 -1.033353e-07
   4    1 -6.442824e-08 -3.406723e-07
   4    2  1.657498e-07  9.146752e-07
   4    3 -1.919242e-06 -1.096990e-05
   4    4  7.846922e-06  5.004379e-05
   4    5 -2.047887e-06 -1.222142e-05
   4    6  2.567756e-07  1.370401e-06
   4    7 -1.059151e-07 -5.743415e-07
   4    8  2.789037e-09 -2.781419e-08
   5    0 -1.751100e-08 -6.984613e-08
   5    1 -1.271464e-08 -7.885932e-08
   5    2 -6.079350e-08 -3.165187e-07
   5    3  2.284311e-07  1.178480e-06
   5    4 -2.047887e-06 -1.222142e-05
   5    5  1.104281e-05  7.647821e-05
   5    6 -2.882903e-06 -1.966018e-05
   5    7  7.084503e-07  4.959995e-06
   5    8 -2.758291e-07 -1.770117e-06
   6    0 -7.503440e-09 -2.066675e-08
   6    1 -8.518546e-09 -2.333429e-08
   6    2 -7.341838e-09 -2.957478e-08
   6    3 -6.534083e-08 -3.375189e-07
   6    4  2.567756e-07  1.370401e-06
   6    5 -2.882903e-06 -1.966018e-05
   6    6  1.842968e-05  1.381888e-04
   6    7 -7.770907e-06 -5.490920e-05
   6    8  1.954535e-06  1.227011e-05
   7    0 -2.354337e-10  8.447514e-10
   7    1 -3.942557e-09  2.485032e-09
   7    2 -8.473828e-09 -4.366935e-08
   7    3 -8.809646e-10 -5.402373e-09
   7    4 -1.059151e-07 -5.900609e-07
   7    5  7.084503e-07  5.058205e-06
   7    6 -7.770907e-06 -5.588420e-05
   7    7  8.191945e-05  6.536568e-04
   7    8 -3.642743e-05 -2.392457e-04
   8    0  1.085804e-09  6.354268e-09
   8    1  5.018185e-10  1.924734e-09
   8    2 -1.355696e-09  1.766541e-09
   8    3 -1.003367e-08 -4.265293e-08
   8    4  3.019215e-09  9.263754e-08
   8    5 -2.779241e-07 -2.729636e-06
   8    6  1.968954e-06  2.081122e-05
   8    7 -3.671625e-05 -4.082324e-04
   8    8  2.993693e-04  3.227300e-03
