#************************************************************************
# 
#    These are published data of the HERMES Collaboration.
#    You are free to use these data in any publication. 
#    However, you must make a reference to the following publication:
# 
#    A. Airapetian et al, Phys. Rev. D 87 (2013) 074029 
# 
#************************************************************************
# 
# Covariance matrices for the hadron charge asymmetries from HERMES
# Configuration: zx-3D (x: 9, z: 6, Php: 4)
# Projected to: 1D (x: 9)
# Target: D
# Optional settings: VM subtracted
#
#  i    j            pi             k
   0    0  9.939762e-06  6.741770e-05
   0    1 -1.356861e-06 -8.924847e-06
   0    2  7.953930e-08  5.274075e-07
   0    3 -4.968193e-08 -3.339004e-07
   0    4 -1.767784e-08 -7.443536e-08
   0    5 -1.406637e-08 -6.072146e-08
   0    6 -7.180372e-09 -1.554627e-08
   0    7  7.074421e-11  3.007588e-09
   0    8  1.280345e-09  2.555061e-09
   1    0 -1.356861e-06 -8.924847e-06
   1    1  6.960419e-06  4.527906e-05
   1    2 -1.398562e-06 -8.806451e-06
   1    3  1.386415e-07  8.055116e-07
   1    4 -5.724581e-08 -3.056297e-07
   1    5 -1.148667e-08 -4.661582e-08
   1    6 -8.148859e-09 -4.765870e-08
   1    7 -2.150079e-09 -5.531933e-09
   1    8  1.164172e-10  4.514946e-09
   2    0  7.953930e-08  5.274075e-07
   2    1 -1.398562e-06 -8.806451e-06
   2    2  6.189746e-06  3.942328e-05
   2    3 -1.637619e-06 -9.574460e-06
   2    4  1.447939e-07  7.299964e-07
   2    5 -5.465023e-08 -2.924071e-07
   2    6 -5.931156e-09 -4.021345e-08
   2    7 -6.026193e-09 -2.937773e-08
   2    8 -1.680676e-09 -1.916774e-08
   3    0 -4.968193e-08 -3.339004e-07
   3    1  1.386415e-07  8.055116e-07
   3    2 -1.637619e-06 -9.574460e-06
   3    3  7.227273e-06  4.550361e-05
   3    4 -1.756720e-06 -9.909510e-06
   3    5  2.074267e-07  9.857306e-07
   3    6 -5.815533e-08 -2.919554e-07
   3    7 -1.678183e-09 -2.068551e-08
   3    8 -1.073696e-08 -3.338621e-08
   4    0 -1.767784e-08 -7.443536e-08
   4    1 -5.724581e-08 -3.056297e-07
   4    2  1.447939e-07  7.299964e-07
   4    3 -1.756720e-06 -9.909510e-06
   4    4  7.198363e-06  4.550874e-05
   4    5 -1.884559e-06 -1.103045e-05
   4    6  2.380719e-07  1.261684e-06
   4    7 -9.748458e-08 -5.529148e-07
   4    8  4.527890e-09  1.127674e-07
   5    0 -1.406637e-08 -6.072146e-08
   5    1 -1.148667e-08 -4.661582e-08
   5    2 -5.465023e-08 -2.924071e-07
   5    3  2.074267e-07  9.857306e-07
   5    4 -1.884559e-06 -1.103045e-05
   5    5  1.031039e-05  7.062798e-05
   5    6 -2.720529e-06 -1.719467e-05
   5    7  6.735591e-07  4.100999e-06
   5    8 -2.632944e-07 -1.432150e-06
   6    0 -7.180372e-09 -1.550679e-08
   6    1 -8.148859e-09 -4.726264e-08
   6    2 -5.931156e-09 -4.023382e-08
   6    3 -5.815533e-08 -2.934754e-07
   6    4  2.380719e-07  1.264197e-06
   6    5 -2.720529e-06 -1.721150e-05
   6    6  1.793152e-05  1.319167e-04
   6    7 -7.684835e-06 -5.507442e-05
   6    8  2.080700e-06  1.367110e-05
   7    0  7.074421e-11  3.534082e-09
   7    1 -2.150079e-09 -4.287717e-09
   7    2 -6.026193e-09 -2.888636e-08
   7    3 -1.678183e-09 -1.955568e-08
   7    4 -9.748458e-08 -5.733748e-07
   7    5  6.735591e-07  4.254634e-06
   7    6 -7.684835e-06 -5.739748e-05
   7    7  8.367626e-05  6.891549e-04
   7    8 -3.847547e-05 -2.849408e-04
   8    0  1.290427e-09  2.832678e-10
   8    1  1.189599e-10  4.062472e-09
   8    2 -1.687954e-09 -8.920224e-09
   8    3 -1.074303e-08 -6.504550e-08
   8    4  4.573596e-09  1.783237e-07
   8    5 -2.640415e-07 -2.142458e-06
   8    6  2.089309e-06  2.028771e-05
   8    7 -3.862076e-05 -3.990002e-04
   8    8  3.269537e-04  3.623001e-03
